SCIP version 5.0.0 [precision: 8 byte] [memory: block] [mode: optimized] [LP solver: NONE] [GitHash: 3bbd232]
Copyright (C) 2002-2017 Konrad-Zuse-Zentrum fuer Informationstechnik Berlin (ZIB)

External codes: 
  Readline EditLine w  GNU library for command line editing (gnu.org/s/readline)
  CppAD 20160000.1     Algorithmic Differentiation of C++ algorithms developed by B. Bell (www.coin-or.org/CppAD)
  ZLIB 1.2.5           General purpose compression library by J. Gailly and M. Adler (zlib.net)
  GMP 6.1.2            GNU Multiple Precision Arithmetic Library developed by T. Granlund (gmplib.org)

user parameter file <scip.set> not found - using default parameters

read problem <../../Split_data/output/biodeg/9/3_sample_biodeg.logreg>
============

File name	:	../../Split_data/output/biodeg/9/3_sample_biodeg.logreg
Problem name 	:	3_sample_biodeg
Number of data	:	844
Number of var	:	41
The given data has linear independence

[dim=1] time: 0.039436
[dim=2] time: 0.077808
[dim=3] time: 0.117773
[dim=4] time: 0.157004
[dim=5] time: 0.196454
[dim=6] time: 0.235484
[dim=7] time: 0.277906
[dim=8] time: 0.317321
[dim=9] time: 0.352961
[dim=10] time: 0.3865
[dim=11] time: 0.423622
[dim=12] time: 0.455735
[dim=13] time: 0.487997
[dim=14] time: 0.514566
[dim=15] time: 0.539822
[dim=16] time: 0.564486
[dim=17] time: 0.592623
[dim=18] time: 0.616599
[dim=19] time: 0.631686
[dim=20] time: 0.646255
[dim=21] Time of forward = 0.660675sec.
AIC: 527.458
k: 20

[dim=41] time: 0.142321
[dim=40] time: 0.194107
[dim=39] time: 0.251546
[dim=38] time: 0.300262
[dim=37] time: 0.342563
[dim=36] time: 0.38159
[dim=35] time: 0.42573
[dim=34] time: 0.471567
[dim=33] time: 0.524669
[dim=32] time: 0.593629
[dim=31] time: 0.635256
[dim=30] time: 0.669438
[dim=29] time: 0.700567
[dim=28] time: 0.741769
[dim=27] time: 0.771902
[dim=26] time: 0.808629
[dim=25] time: 0.836709
[dim=24] time: 0.870663
[dim=23] time: 0.895612
[dim=22] time: 0.928716
[dim=21] time: 0.947386
[dim=20] time: 0.969298
[dim=19] Time of backward = 0.992495sec.
AIC: 527.048
k: 20
